webassembly/ejemplos_dzn/folder9_json_48.dzn
TERM = { '.', 'local_0', 'local_1', 's(1)', 's(0)', 'in_0'};
null = '.';
s = 9;
n = 7;
ndeps = 1;
max_registers_sz = 5;
NR = 2;
registers = [|'local_0', 'in_0', |'local_1', 'in_0'|];
dependencies = [|'i32.store_2', 'i32.load8_u_5'|];
GET_ENUM = { GET1, GET2, GET3, GET4, GET5, GET6, GET7};
SET_ENUM = { SET1, SET2, SET3, SET4, SET5, SET6, SET7};
TEE_ENUM = { TEE1, TEE2, TEE3, TEE4, TEE5, TEE6, TEE7};
N = 3;
OP = { 'i32.const_0', 'i32.store_2', 'i32.load8_u_5' };
in_ops = [0, 2, 1 ];
out_ops = [1, 0, 1 ];
in1 = ['.', 's(1)', 'local_1' ];
in2 = ['.', 'in_0', '.' ];
in3 = ['.', '.', '.' ];
out1 = ['s(1)', '.', 's(0)' ];
out2 = ['.', '.', '.' ];
out3 = ['.', '.', '.' ];
comm = [false, false, false ];
gas = [1, 1, 1 ];
sz = [1, 1, 1 ];
stor = [false, true, false ];
lb = [ 1, 1, 1 ];
ub = [ 9, 9, 9 ];
startstack = [ 'in_0', null, null, null, null, null, null ];
endstack = [ 'in_0', 's(0)', null, null, null, null, null ];
